
Welcome to IBM(R) ILOG(R) CPLEX(R) Interactive Optimizer 22.1.1.0
  with Simplex, Mixed Integer & Barrier Optimizers
5725-A06 5725-A29 5724-Y48 5724-Y49 5724-Y54 5724-Y55 5655-Y21
Copyright IBM Corp. 1988, 2022.  All Rights Reserved.

Type 'help' for a list of available commands.
Type 'help' followed by a command name for more
information on commands.

CPLEX> Selected objective sense:  MINIMIZE
Selected objective  name:  00000000
Selected RHS        name:  RHS1
Selected bound      name:  BOUND
Problem 'ee.mps' read.
Read time = 0.02 sec. (3.14 ticks)
CPLEX> New value for time limit in seconds: 7200
CPLEX> New value for parallel optimization mode: -1
CPLEX> New value for default parallel thread count: 40
CPLEX> New value for mixed integer optimality gap tolerance: 1e-13
CPLEX> Version identifier: 22.1.1.0 | 2022-11-28 | 9160aff4d
CPXPARAM_Threads                                 40
CPXPARAM_Parallel                                -1
CPXPARAM_TimeLimit                               7200
CPXPARAM_MIP_Tolerances_MIPGap                   1e-13
Found incumbent of value 0.000000 after 0.00 sec. (0.31 ticks)
Tried aggregator 2 times.
MIP Presolve eliminated 180 rows and 2745 columns.
MIP Presolve modified 5862 coefficients.
Aggregator did 713 substitutions.
Reduced MIP has 3624 rows, 7739 columns, and 28645 nonzeros.
Reduced MIP has 7739 binaries, 0 generals, 0 SOSs, and 0 indicators.
Presolve time = 0.07 sec. (68.55 ticks)
Probing fixed 137 vars, tightened 0 bounds.
Probing time = 0.07 sec. (39.92 ticks)
Tried aggregator 2 times.
Detecting symmetries...
MIP Presolve eliminated 46 rows and 190 columns.
MIP Presolve modified 14 coefficients.
Aggregator did 41 substitutions.
Reduced MIP has 3537 rows, 7494 columns, and 27774 nonzeros.
Reduced MIP has 7494 binaries, 0 generals, 0 SOSs, and 0 indicators.
Presolve time = 0.07 sec. (74.19 ticks)
Probing fixed 18 vars, tightened 0 bounds.
Probing time = 0.07 sec. (36.61 ticks)
Clique table members: 18115.
MIP emphasis: balance optimality and feasibility.
MIP search method: dynamic search.
Parallel mode: opportunistic, using up to 40 threads.
Root relaxation solution time = 0.09 sec. (80.04 ticks)

        Nodes                                         Cuts/
   Node  Left     Objective  IInf  Best Integer    Best Bound    ItCnt     Gap

*     0+    0                            0.0000  -1.31000e+13              --- 
*     0+    0                      -3.30000e+12  -1.31000e+13           296.97%
*     0+    0                      -4.29000e+12  -1.31000e+13           205.36%
*     0+    0                      -4.40000e+12  -1.31000e+13           197.73%
*     0+    0                      -5.50000e+12  -1.31000e+13           138.18%
*     0+    0                      -6.49000e+12  -1.31000e+13           101.85%
      0     0  -1.30900e+13    39  -6.49000e+12  -1.30900e+13     2027  101.69%
*     0+    0                      -1.30900e+13  -1.30900e+13             0.00%
*     0+    0                      -1.30900e+13  -1.30900e+13             0.00%
      0     0  -1.30900e+13    97  -1.30900e+13      Cuts: 57     2436    0.00%
*     0+    0                      -1.30900e+13  -1.30900e+13             0.00%
      0     0  -1.30900e+13   142  -1.30900e+13      Cuts: 64     2527    0.00%
*     0+    0                      -1.30900e+13  -1.30900e+13             0.00%
Detecting symmetries...

Repeating presolve.
Tried aggregator 2 times.
MIP Presolve eliminated 2026 rows and 4350 columns.
MIP Presolve added 6 rows and 0 columns.
MIP Presolve modified 7 coefficients.
Aggregator did 521 substitutions.
Reduced MIP has 996 rows, 2575 columns, and 8903 nonzeros.
Reduced MIP has 2575 binaries, 0 generals, 0 SOSs, and 0 indicators.
Presolve time = 0.05 sec. (40.14 ticks)
Probing time = 0.00 sec. (3.75 ticks)
Tried aggregator 1 time.
Detecting symmetries...
Reduced MIP has 996 rows, 2575 columns, and 8903 nonzeros.
Reduced MIP has 2575 binaries, 0 generals, 0 SOSs, and 0 indicators.
Presolve time = 0.01 sec. (6.12 ticks)
Represolve time = 0.07 sec. (63.81 ticks)
Probing time = 0.00 sec. (3.72 ticks)
Clique table members: 6093.
MIP emphasis: balance optimality and feasibility.
MIP search method: dynamic search.
Parallel mode: opportunistic, using up to 40 threads.
Root relaxation solution time = 0.05 sec. (27.15 ticks)

        Nodes                                         Cuts/
   Node  Left     Objective  IInf  Best Integer    Best Bound    ItCnt     Gap

*     0+    0                      -1.30900e+13  -1.30900e+13             0.00%
      0     0  -1.30900e+13    82  -1.30900e+13  -1.30900e+13     3393    0.00%
      0     0  -1.30900e+13    84  -1.30900e+13      Cuts: 76     3498    0.00%
      0     0  -1.30900e+13   145  -1.30900e+13      Cuts: 44     3666    0.00%
*     0+    0                      -1.30900e+13  -1.30900e+13             0.00%
      0     0  -1.00000e+75     0  -1.30900e+13  -1.30900e+13     3666    0.00%
      0     2  -1.30900e+13   131  -1.30900e+13  -1.30900e+13     3666    0.00%
Elapsed time = 1.62 sec. (1101.80 ticks, tree = 0.02 MB, solutions = 11)
    488     5        cutoff        -1.30900e+13  -1.30900e+13    70440    0.00%

GUB cover cuts applied:  5
Clique cuts applied:  13
Cover cuts applied:  335
Flow cuts applied:  6
Mixed integer rounding cuts applied:  6
Zero-half cuts applied:  19
Lift and project cuts applied:  15
Gomory fractional cuts applied:  5

Root node processing (before b&c):
  Real time             =    1.37 sec. (1101.88 ticks)
Parallel b&c, 40 threads:
  Real time             =    0.91 sec. (286.09 ticks)
  Sync time (average)   =    0.47 sec.
  Wait time (average)   =    0.00 sec.
                          ------------
Total (root+branch&cut) =    2.27 sec. (1387.97 ticks)

Solution pool: 12 solutions saved.

MIP - Integer optimal solution:  Objective = -1.3089999989e+13
Solution time =    2.32 sec.  Iterations = 71688  Nodes = 508
Deterministic time = 1388.00 ticks  (599.02 ticks/sec)

CPLEX> Solution 'p13' written to file 'ee.sol'.
CPLEX> 